% demand
num_movements = 16;
loading_factor = [900, 1850, 800, 1900, 1700, 1350, 800, 1700, 1250, 1000, 1250, 1250, 1900, 1600, 1800, 1600];
pickup_time = [0, 0, 1, 1, 1, 1, 1, 1, 4, 5, 5, 5, 5, 5, 5, 5];
delivery_time = [2, 5, 5, 5, 5, 5, 3, 5, 5, 6, 6, 6, 6, 6, 6, 6];

% transporter definition
total_capacity = 11000;
num_decks = 4;
capacity = [3000, 3000, 1000, 4000];

% ways out of decks
num_ways_out = 2;
paths_out = array3d(decks, ways_out, decks, [
% ways out of deck d1
2, 4, 0, 0, 3, 4, 0, 0, 

% ways out of deck d2
4, 0, 0, 0, 0, 0, 0, 0,	

% ways out of deck d3
4, 0, 0, 0, 0, 0, 0, 0,	

% ways out of deck d4
0, 0, 0, 0,	0, 0, 0, 0,	

]);

